
Gurobi 10.0.1 (linux64) logging started Sun Nov 26 16:21:09 2023

Set parameter LogFile to value "ArtificialInstance/ExperimentV2/S3T5K3/AdRo/gurobiDoRo50.txt"
Gurobi Optimizer version 10.0.1 build v10.0.1rc0 (linux64)

CPU model: AMD EPYC 7H12 64-Core Processor, instruction set [SSE2|AVX|AVX2]
Thread count: 128 physical cores, 128 logical processors, using up to 32 threads

Academic license 656792 - for non-commercial use only - registered to b.___@student.vu.nl
Optimize a model with 21803 rows, 20185 columns and 78687 nonzeros
Model fingerprint: 0xe9442b3d
Variable types: 1 continuous, 20184 integer (20184 binary)
Coefficient statistics:
  Matrix range     [1e+00, 4e+01]
  Objective range  [1e+00, 2e+01]
  Bounds range     [1e+00, 1e+00]
  RHS range        [1e+00, 1e+00]
Presolve removed 10520 rows and 9834 columns
Presolve time: 0.25s
Presolved: 11283 rows, 10351 columns, 40432 nonzeros
Variable types: 1 continuous, 10350 integer (10350 binary)
Found heuristic solution: objective 122.5622188

Root relaxation: objective 1.123180e+02, 3842 iterations, 0.16 seconds (0.10 work units)

    Nodes    |    Current Node    |     Objective Bounds      |     Work
 Expl Unexpl |  Obj  Depth IntInf | Incumbent    BestBd   Gap | It/Node Time

     0     0  112.31803    0  123  122.56222  112.31803  8.36%     -    0s
H    0     0                     112.3180291  112.31803  0.00%     -    0s
     0     0  112.31803    0  123  112.31803  112.31803  0.00%     -    0s

Explored 1 nodes (6741 simplex iterations) in 0.67 seconds (0.46 work units)
Thread count was 32 (of 128 available processors)

Solution count 2: 112.318 122.562 

Optimal solution found (tolerance 1.00e-04)
Best objective 1.123180291327e+02, best bound 1.123180291327e+02, gap 0.0000%
